n = 10; 

m=14; 


51	63	41	60	68	35	29	27	63	40
74	66	84	60	78	78	79	52	87	71
48	48	46	3	64	18	21	23	34	56
49	37	34	55	29	23	37	33	44	60
32	50	51	35	63	29	73	32	34	7
16	59	17	35	61	46	48	18	16	73
29	23	64	27	65	7	69	63	61	20
46	29	6	17	2	10	56	20	20	39
32	26	3	63	53	30	20	37	40	3
37	22	72	37	63	33	14	74	68	40
7	66	19	6	29	8	49	46	54	42
54	30	19	72	48	59	27	43	43	68
41	28	7	27	3	57	6	50	27	10
48	48	46	3	64	18	21	23	34	56


